/*********************************************
 * OPL 12.6.0.0 Data
 * Author: Adrian Rodriguez Bazaga, Pau Rodriguez Esmerats
 * Creation Date: 06/12/2017 at 23:02:54
 *********************************************/

nNurses=106;
maxConsec=2;
maxPresence=7;
maxHours=5;
minHours=1;
hours=24;
demand= [17 14 23 21 14 23 21 14 12 5 1 2 1 2 2 2 2 1 1 0 23 37 15 33  ];
